p cnf 22 8
e 1 2 0
a 3 0
e 4 5 6 0
a 7 0
e 8 0
a 9 10 11 12 13 14 0
e 15 0
a 16 17 0
e 18 19 20 0
a 21 0
e 22 0
18 5 -17 -10 -22 0
-16 -10 18 1 -6 0
-8 -6 11 12 0
-20 -5 -8 0
-19 -2 -22 -13 -4 0
-16 -8 -11 0
-3 -7 0
1 -12 19 -13 8 0
